(set-option :produce-models true)
(set-logic QF_LRA)
(set-info :notes | Strip-packing problem.|)
(declare-fun x0 () Real)
(declare-fun y0 () Real)
(declare-fun x1 () Real)
(declare-fun y1 () Real)
(declare-fun x2 () Real)
(declare-fun y2 () Real)
(declare-fun x3 () Real)
(declare-fun y3 () Real)
(declare-fun x4 () Real)
(declare-fun y4 () Real)
(declare-fun x5 () Real)
(declare-fun y5 () Real)
(declare-fun x6 () Real)
(declare-fun y6 () Real)
(declare-fun x7 () Real)
(declare-fun y7 () Real)
(declare-fun x8 () Real)
(declare-fun y8 () Real)
(declare-fun x9 () Real)
(declare-fun y9 () Real)
(declare-fun x10 () Real)
(declare-fun y10 () Real)
(declare-fun x11 () Real)
(declare-fun y11 () Real)
(declare-fun z () Real)
(declare-fun c () Real)
(assert (and (= c z) (and (>= x0 0) 
(and (>= y0 0) 
(and (>= x1 0) 
(and (>= y1 0) 
(and (>= x2 0) 
(and (>= y2 0) 
(and (>= x3 0) 
(and (>= y3 0) 
(and (>= x4 0) 
(and (>= y4 0) 
(and (>= x5 0) 
(and (>= y5 0) 
(and (>= x6 0) 
(and (>= y6 0) 
(and (>= x7 0) 
(and (>= y7 0) 
(and (>= x8 0) 
(and (>= y8 0) 
(and (>= x9 0) 
(and (>= y9 0) 
(and (>= x10 0) 
(and (>= y10 0) 
(and (>= x11 0) 
(and (>= y11 0) 
(and (>= z 0) 
(and (>= c 0) 
(and (<= (+ x0 0.5664811894) z) 
(and (<= 0.8558319798 y0) 
(and (<= y0 1.73205080757) 
(and (<= x0 (- 2.6974829371 0.5664811894)) 
(and (>= x0 0) 
(and (<= (+ x1 0.2712745785) z) 
(and (<= 0.7035296864 y1) 
(and (<= y1 1.73205080757) 
(and (<= x1 (- 2.6974829371 0.2712745785)) 
(and (>= x1 0) 
(and (<= (+ x2 0.1902572445) z) 
(and (<= 0.6793844305 y2) 
(and (<= y2 1.73205080757) 
(and (<= x2 (- 2.6974829371 0.1902572445)) 
(and (>= x2 0) 
(and (<= (+ x3 0.5944999571) z) 
(and (<= 0.6702004524 y3) 
(and (<= y3 1.73205080757) 
(and (<= x3 (- 2.6974829371 0.5944999571)) 
(and (>= x3 0) 
(and (<= (+ x4 0.3652203145) z) 
(and (<= 0.662452638 y4) 
(and (<= y4 1.73205080757) 
(and (<= x4 (- 2.6974829371 0.3652203145)) 
(and (>= x4 0) 
(and (<= (+ x5 0.5138328272) z) 
(and (<= 0.6406551297 y5) 
(and (<= y5 1.73205080757) 
(and (<= x5 (- 2.6974829371 0.5138328272)) 
(and (>= x5 0) 
(and (<= (+ x6 0.505512564) z) 
(and (<= 0.4433082699 y6) 
(and (<= y6 1.73205080757) 
(and (<= x6 (- 2.6974829371 0.505512564)) 
(and (>= x6 0) 
(and (<= (+ x7 0.8324117189) z) 
(and (<= 0.3682028427 y7) 
(and (<= y7 1.73205080757) 
(and (<= x7 (- 2.6974829371 0.8324117189)) 
(and (>= x7 0) 
(and (<= (+ x8 0.1062206365) z) 
(and (<= 0.3111864173 y8) 
(and (<= y8 1.73205080757) 
(and (<= x8 (- 2.6974829371 0.1062206365)) 
(and (>= x8 0) 
(and (<= (+ x9 0.6790325209) z) 
(and (<= 0.3068331627 y9) 
(and (<= y9 1.73205080757) 
(and (<= x9 (- 2.6974829371 0.6790325209)) 
(and (>= x9 0) 
(and (<= (+ x10 0.6596612972) z) 
(and (<= 0.0212762407 y10) 
(and (<= y10 1.73205080757) 
(and (<= x10 (- 2.6974829371 0.6596612972)) 
(and (>= x10 0) 
(and (<= (+ x11 0.7082317193) z) 
(and (<= 0.0192467805 y11) 
(and (<= y11 1.73205080757) 
(and (<= x11 (- 2.6974829371 0.7082317193)) 
(and (>= x11 0) 
(and (<= c 2.6974829371) 
(and (or (<= (+ x0 0.5664811894) x1) (or (<= (+ x1 0.2712745785) x0) (or (>= (- y0 0.8558319798) y1) (or (>= (- y1 0.7035296864) y0))))) 
(and (or (<= (+ x0 0.5664811894) x2) (or (<= (+ x2 0.1902572445) x0) (or (>= (- y0 0.8558319798) y2) (or (>= (- y2 0.6793844305) y0))))) 
(and (or (<= (+ x0 0.5664811894) x3) (or (<= (+ x3 0.5944999571) x0) (or (>= (- y0 0.8558319798) y3) (or (>= (- y3 0.6702004524) y0))))) 
(and (or (<= (+ x0 0.5664811894) x4) (or (<= (+ x4 0.3652203145) x0) (or (>= (- y0 0.8558319798) y4) (or (>= (- y4 0.662452638) y0))))) 
(and (or (<= (+ x0 0.5664811894) x5) (or (<= (+ x5 0.5138328272) x0) (or (>= (- y0 0.8558319798) y5) (or (>= (- y5 0.6406551297) y0))))) 
(and (or (<= (+ x0 0.5664811894) x6) (or (<= (+ x6 0.505512564) x0) (or (>= (- y0 0.8558319798) y6) (or (>= (- y6 0.4433082699) y0))))) 
(and (or (<= (+ x0 0.5664811894) x7) (or (<= (+ x7 0.8324117189) x0) (or (>= (- y0 0.8558319798) y7) (or (>= (- y7 0.3682028427) y0))))) 
(and (or (<= (+ x0 0.5664811894) x8) (or (<= (+ x8 0.1062206365) x0) (or (>= (- y0 0.8558319798) y8) (or (>= (- y8 0.3111864173) y0))))) 
(and (or (<= (+ x0 0.5664811894) x9) (or (<= (+ x9 0.6790325209) x0) (or (>= (- y0 0.8558319798) y9) (or (>= (- y9 0.3068331627) y0))))) 
(and (or (<= (+ x0 0.5664811894) x10) (or (<= (+ x10 0.6596612972) x0) (or (>= (- y0 0.8558319798) y10) (or (>= (- y10 0.0212762407) y0))))) 
(and (or (<= (+ x0 0.5664811894) x11) (or (<= (+ x11 0.7082317193) x0) (or (>= (- y0 0.8558319798) y11) (or (>= (- y11 0.0192467805) y0))))) 
(and (or (<= (+ x1 0.2712745785) x2) (or (<= (+ x2 0.1902572445) x1) (or (>= (- y1 0.7035296864) y2) (or (>= (- y2 0.6793844305) y1))))) 
(and (or (<= (+ x1 0.2712745785) x3) (or (<= (+ x3 0.5944999571) x1) (or (>= (- y1 0.7035296864) y3) (or (>= (- y3 0.6702004524) y1))))) 
(and (or (<= (+ x1 0.2712745785) x4) (or (<= (+ x4 0.3652203145) x1) (or (>= (- y1 0.7035296864) y4) (or (>= (- y4 0.662452638) y1))))) 
(and (or (<= (+ x1 0.2712745785) x5) (or (<= (+ x5 0.5138328272) x1) (or (>= (- y1 0.7035296864) y5) (or (>= (- y5 0.6406551297) y1))))) 
(and (or (<= (+ x1 0.2712745785) x6) (or (<= (+ x6 0.505512564) x1) (or (>= (- y1 0.7035296864) y6) (or (>= (- y6 0.4433082699) y1))))) 
(and (or (<= (+ x1 0.2712745785) x7) (or (<= (+ x7 0.8324117189) x1) (or (>= (- y1 0.7035296864) y7) (or (>= (- y7 0.3682028427) y1))))) 
(and (or (<= (+ x1 0.2712745785) x8) (or (<= (+ x8 0.1062206365) x1) (or (>= (- y1 0.7035296864) y8) (or (>= (- y8 0.3111864173) y1))))) 
(and (or (<= (+ x1 0.2712745785) x9) (or (<= (+ x9 0.6790325209) x1) (or (>= (- y1 0.7035296864) y9) (or (>= (- y9 0.3068331627) y1))))) 
(and (or (<= (+ x1 0.2712745785) x10) (or (<= (+ x10 0.6596612972) x1) (or (>= (- y1 0.7035296864) y10) (or (>= (- y10 0.0212762407) y1))))) 
(and (or (<= (+ x1 0.2712745785) x11) (or (<= (+ x11 0.7082317193) x1) (or (>= (- y1 0.7035296864) y11) (or (>= (- y11 0.0192467805) y1))))) 
(and (or (<= (+ x2 0.1902572445) x3) (or (<= (+ x3 0.5944999571) x2) (or (>= (- y2 0.6793844305) y3) (or (>= (- y3 0.6702004524) y2))))) 
(and (or (<= (+ x2 0.1902572445) x4) (or (<= (+ x4 0.3652203145) x2) (or (>= (- y2 0.6793844305) y4) (or (>= (- y4 0.662452638) y2))))) 
(and (or (<= (+ x2 0.1902572445) x5) (or (<= (+ x5 0.5138328272) x2) (or (>= (- y2 0.6793844305) y5) (or (>= (- y5 0.6406551297) y2))))) 
(and (or (<= (+ x2 0.1902572445) x6) (or (<= (+ x6 0.505512564) x2) (or (>= (- y2 0.6793844305) y6) (or (>= (- y6 0.4433082699) y2))))) 
(and (or (<= (+ x2 0.1902572445) x7) (or (<= (+ x7 0.8324117189) x2) (or (>= (- y2 0.6793844305) y7) (or (>= (- y7 0.3682028427) y2))))) 
(and (or (<= (+ x2 0.1902572445) x8) (or (<= (+ x8 0.1062206365) x2) (or (>= (- y2 0.6793844305) y8) (or (>= (- y8 0.3111864173) y2))))) 
(and (or (<= (+ x2 0.1902572445) x9) (or (<= (+ x9 0.6790325209) x2) (or (>= (- y2 0.6793844305) y9) (or (>= (- y9 0.3068331627) y2))))) 
(and (or (<= (+ x2 0.1902572445) x10) (or (<= (+ x10 0.6596612972) x2) (or (>= (- y2 0.6793844305) y10) (or (>= (- y10 0.0212762407) y2))))) 
(and (or (<= (+ x2 0.1902572445) x11) (or (<= (+ x11 0.7082317193) x2) (or (>= (- y2 0.6793844305) y11) (or (>= (- y11 0.0192467805) y2))))) 
(and (or (<= (+ x3 0.5944999571) x4) (or (<= (+ x4 0.3652203145) x3) (or (>= (- y3 0.6702004524) y4) (or (>= (- y4 0.662452638) y3))))) 
(and (or (<= (+ x3 0.5944999571) x5) (or (<= (+ x5 0.5138328272) x3) (or (>= (- y3 0.6702004524) y5) (or (>= (- y5 0.6406551297) y3))))) 
(and (or (<= (+ x3 0.5944999571) x6) (or (<= (+ x6 0.505512564) x3) (or (>= (- y3 0.6702004524) y6) (or (>= (- y6 0.4433082699) y3))))) 
(and (or (<= (+ x3 0.5944999571) x7) (or (<= (+ x7 0.8324117189) x3) (or (>= (- y3 0.6702004524) y7) (or (>= (- y7 0.3682028427) y3))))) 
(and (or (<= (+ x3 0.5944999571) x8) (or (<= (+ x8 0.1062206365) x3) (or (>= (- y3 0.6702004524) y8) (or (>= (- y8 0.3111864173) y3))))) 
(and (or (<= (+ x3 0.5944999571) x9) (or (<= (+ x9 0.6790325209) x3) (or (>= (- y3 0.6702004524) y9) (or (>= (- y9 0.3068331627) y3))))) 
(and (or (<= (+ x3 0.5944999571) x10) (or (<= (+ x10 0.6596612972) x3) (or (>= (- y3 0.6702004524) y10) (or (>= (- y10 0.0212762407) y3))))) 
(and (or (<= (+ x3 0.5944999571) x11) (or (<= (+ x11 0.7082317193) x3) (or (>= (- y3 0.6702004524) y11) (or (>= (- y11 0.0192467805) y3))))) 
(and (or (<= (+ x4 0.3652203145) x5) (or (<= (+ x5 0.5138328272) x4) (or (>= (- y4 0.662452638) y5) (or (>= (- y5 0.6406551297) y4))))) 
(and (or (<= (+ x4 0.3652203145) x6) (or (<= (+ x6 0.505512564) x4) (or (>= (- y4 0.662452638) y6) (or (>= (- y6 0.4433082699) y4))))) 
(and (or (<= (+ x4 0.3652203145) x7) (or (<= (+ x7 0.8324117189) x4) (or (>= (- y4 0.662452638) y7) (or (>= (- y7 0.3682028427) y4))))) 
(and (or (<= (+ x4 0.3652203145) x8) (or (<= (+ x8 0.1062206365) x4) (or (>= (- y4 0.662452638) y8) (or (>= (- y8 0.3111864173) y4))))) 
(and (or (<= (+ x4 0.3652203145) x9) (or (<= (+ x9 0.6790325209) x4) (or (>= (- y4 0.662452638) y9) (or (>= (- y9 0.3068331627) y4))))) 
(and (or (<= (+ x4 0.3652203145) x10) (or (<= (+ x10 0.6596612972) x4) (or (>= (- y4 0.662452638) y10) (or (>= (- y10 0.0212762407) y4))))) 
(and (or (<= (+ x4 0.3652203145) x11) (or (<= (+ x11 0.7082317193) x4) (or (>= (- y4 0.662452638) y11) (or (>= (- y11 0.0192467805) y4))))) 
(and (or (<= (+ x5 0.5138328272) x6) (or (<= (+ x6 0.505512564) x5) (or (>= (- y5 0.6406551297) y6) (or (>= (- y6 0.4433082699) y5))))) 
(and (or (<= (+ x5 0.5138328272) x7) (or (<= (+ x7 0.8324117189) x5) (or (>= (- y5 0.6406551297) y7) (or (>= (- y7 0.3682028427) y5))))) 
(and (or (<= (+ x5 0.5138328272) x8) (or (<= (+ x8 0.1062206365) x5) (or (>= (- y5 0.6406551297) y8) (or (>= (- y8 0.3111864173) y5))))) 
(and (or (<= (+ x5 0.5138328272) x9) (or (<= (+ x9 0.6790325209) x5) (or (>= (- y5 0.6406551297) y9) (or (>= (- y9 0.3068331627) y5))))) 
(and (or (<= (+ x5 0.5138328272) x10) (or (<= (+ x10 0.6596612972) x5) (or (>= (- y5 0.6406551297) y10) (or (>= (- y10 0.0212762407) y5))))) 
(and (or (<= (+ x5 0.5138328272) x11) (or (<= (+ x11 0.7082317193) x5) (or (>= (- y5 0.6406551297) y11) (or (>= (- y11 0.0192467805) y5))))) 
(and (or (<= (+ x6 0.505512564) x7) (or (<= (+ x7 0.8324117189) x6) (or (>= (- y6 0.4433082699) y7) (or (>= (- y7 0.3682028427) y6))))) 
(and (or (<= (+ x6 0.505512564) x8) (or (<= (+ x8 0.1062206365) x6) (or (>= (- y6 0.4433082699) y8) (or (>= (- y8 0.3111864173) y6))))) 
(and (or (<= (+ x6 0.505512564) x9) (or (<= (+ x9 0.6790325209) x6) (or (>= (- y6 0.4433082699) y9) (or (>= (- y9 0.3068331627) y6))))) 
(and (or (<= (+ x6 0.505512564) x10) (or (<= (+ x10 0.6596612972) x6) (or (>= (- y6 0.4433082699) y10) (or (>= (- y10 0.0212762407) y6))))) 
(and (or (<= (+ x6 0.505512564) x11) (or (<= (+ x11 0.7082317193) x6) (or (>= (- y6 0.4433082699) y11) (or (>= (- y11 0.0192467805) y6))))) 
(and (or (<= (+ x7 0.8324117189) x8) (or (<= (+ x8 0.1062206365) x7) (or (>= (- y7 0.3682028427) y8) (or (>= (- y8 0.3111864173) y7))))) 
(and (or (<= (+ x7 0.8324117189) x9) (or (<= (+ x9 0.6790325209) x7) (or (>= (- y7 0.3682028427) y9) (or (>= (- y9 0.3068331627) y7))))) 
(and (or (<= (+ x7 0.8324117189) x10) (or (<= (+ x10 0.6596612972) x7) (or (>= (- y7 0.3682028427) y10) (or (>= (- y10 0.0212762407) y7))))) 
(and (or (<= (+ x7 0.8324117189) x11) (or (<= (+ x11 0.7082317193) x7) (or (>= (- y7 0.3682028427) y11) (or (>= (- y11 0.0192467805) y7))))) 
(and (or (<= (+ x8 0.1062206365) x9) (or (<= (+ x9 0.6790325209) x8) (or (>= (- y8 0.3111864173) y9) (or (>= (- y9 0.3068331627) y8))))) 
(and (or (<= (+ x8 0.1062206365) x10) (or (<= (+ x10 0.6596612972) x8) (or (>= (- y8 0.3111864173) y10) (or (>= (- y10 0.0212762407) y8))))) 
(and (or (<= (+ x8 0.1062206365) x11) (or (<= (+ x11 0.7082317193) x8) (or (>= (- y8 0.3111864173) y11) (or (>= (- y11 0.0192467805) y8))))) 
(and (or (<= (+ x9 0.6790325209) x10) (or (<= (+ x10 0.6596612972) x9) (or (>= (- y9 0.3068331627) y10) (or (>= (- y10 0.0212762407) y9))))) 
(and (or (<= (+ x9 0.6790325209) x11) (or (<= (+ x11 0.7082317193) x9) (or (>= (- y9 0.3068331627) y11) (or (>= (- y11 0.0192467805) y9))))) 
(and (or (<= (+ x10 0.6596612972) x11) (or (<= (+ x11 0.7082317193) x10) (or (>= (- y10 0.0212762407) y11) (or (>= (- y11 0.0192467805) y10))))) )))))))))))))))))))))))))))))))))))))))))))))))))))))))))))))))))))))))))))))))))))))))))))))))))))))))))))))))))))))))))))))))))))))))))))))))))))))))))))
(minimize c)
(check-sat)
(get-objectives)
(exit)
